%%MatrixMarket matrix coordinate pattern general
% Resulted compressed graph for given bipartite graph with 20 nodes, 50 density and 1.0 delta.
% Input File: datasets/bipartite_graph_20_50_1.mtx 
% Compression Ratio (E/E*):  1.1648 
% Number of new/added vertices:  9 
29 29 176
6 22
14 22
15 22
16 22
18 22
22 14
22 1
2 25
4 25
5 25
6 25
12 25
15 25
18 25
25 0
25 9
5 28
7 28
8 28
12 28
28 18
28 13
0 0
8 0
14 0
19 0
2 1
3 1
4 1
5 1
8 1
10 1
17 1
1 2
11 2
13 2
0 3
6 3
7 3
11 3
19 3
2 4
3 4
9 4
15 4
4 5
12 5
15 5
17 5
4 6
7 6
10 6
3 20
7 20
15 20
16 20
19 20
20 19
20 7
0 23
1 23
6 23
8 23
19 23
23 15
23 5
1 26
14 26
18 26
26 4
26 3
5 29
6 29
7 29
8 29
10 29
18 29
29 2
29 11
14 6
16 6
18 6
19 6
1 7
8 7
10 7
17 7
18 7
0 8
1 8
9 8
11 8
15 8
1 9
3 9
7 9
11 9
13 9
17 9
4 10
8 10
10 10
12 10
16 10
17 10
19 10
0 11
4 11
9 11
14 11
17 11
19 11
1 12
2 12
4 12
6 12
9 12
10 12
15 12
19 12
2 21
3 21
5 21
11 21
13 21
14 21
21 17
21 10
0 24
7 24
8 24
18 24
24 16
24 12
3 27
5 27
6 27
8 27
27 6
27 8
9 13
10 13
13 13
15 13
18 13
1 14
9 14
11 14
12 14
13 14
19 14
3 15
7 15
11 15
14 15
16 15
3 16
12 16
14 16
16 16
0 17
1 17
7 17
9 17
15 17
18 17
0 18
4 18
14 18
16 18
17 18
5 19
6 19
9 19
11 19
12 19
